50
8037 21 7 893 3572 56 14 893 14 63 8930 49 14 7144 21 28 7 21 4465 63 7 2679 35 893 6251 7144 7 4465 5358 28 8037 35 1786 2679 21 63 42 4465 4465 35 6251 49 7 7 5358 8930 42 35 1786 49 
5067 882 294 563 2252 2352 588 563 588 2646 5630 2058 588 4504 882 1176 294 882 2815 2646 294 1689 1470 563 3941 4504 294 2815 3378 1176 5067 1470 1126 1689 882 2646 1764 2815 2815 1470 3941 2058 294 294 3378 5630 1764 1470 1126 2058 
52139
